120
150
49
59
23
88
59
43
50
67
70
58
37
32
42
32
76
76
68
58
84
37
40
73
23
32
99
50
90
52
90
59
100
83
30
37
97
52
84
64
52
30
68
33
88
29
52
70
62
88
35
93
21
62
37
50
54
88
75
72
88
72
70
87
21
42
23
52
76
44
30
64
30
23
33
82
68
42
56
26
26
51
70
29
26
49
77
73
64
42
44
52
97
40
99
93
33
23
58
72
70
82
73
76
50
100
51
99
62
88
88
62
30
37
82
39
59
52
52
97
79
70
